language Essence 1.3

letting class be function(1 --> 1, 2 --> 1, 3 --> 2, 4 --> 2, 5 --> 2, 6 --> 2, 7 --> 1, 8 --> 2)
letting deck_length be 8
letting deck_width be 68
letting length be function(1 --> 5, 2 --> 3, 3 --> 3, 4 --> 2, 5 --> 4, 6 --> 7, 7 --> 5, 8 --> 8)
letting n_classes be 2
letting n_containers be 8
letting separation be function()
letting width be function(1 --> 4, 2 --> 1, 3 --> 2, 4 --> 1, 5 --> 2, 6 --> 1, 7 --> 2, 8 --> 29)
